
Starting CP-SAT solver v9.15.6755
Parameters: random_seed: 2026074401 max_time_in_seconds: 2500 log_search_progress: true cp_model_presolve: true linearization_level: 2 num_search_workers: 4 cp_model_probing_level: 2 symmetry_level: 2

Initial satisfaction model '': (model_fingerprint: 0x949e24cd82019721)
#Variables: 724 (608 primary variables)
  - 724 Booleans in [0,1]
#kBoolAnd: 110 (#enforced: 110) (#literals: 330)
#kBoolOr: 110 (#enforced: 110) (#literals: 220)
#kExactlyOne: 87 (#literals: 261)
#kLinear1: 32 (#enforced: 6)
#kLinear2: 336 (#enforced: 336) (#complex_domain: 110)
#kLinear3: 1'600 (#enforced: 6)
#kLinearN: 1'132 (#enforced: 243) (#terms: 9'111)

Starting presolve at 0.00s
  6.83e-04s  0.00e+00d  [DetectDominanceRelations] 
  9.03e-03s  0.00e+00d  [PresolveToFixPoint] #num_loops=3 #num_dual_strengthening=1 
  3.61e-05s  0.00e+00d  [ExtractEncodingFromLinear] #potential_supersets=86 
  2.94e-04s  0.00e+00d  [DetectDuplicateColumns] 
  1.14e-04s  0.00e+00d  [DetectDuplicateConstraints] #duplicates=5 
[Symmetry] Graph for symmetry has 4'868 nodes and 15'700 arcs.
[Symmetry] Symmetry computation done. time: 0.00147725 dtime: 0.0021924
[SAT presolve] num removable Booleans: 220 / 626
[SAT presolve] num trivial clauses: 0
[SAT presolve] [0s] clauses:2'736 literals:7'444 vars:506 one_side_vars:66 simple_definition:1 singleton_clauses:0
[SAT presolve] [0.00021962s] clauses:2'735 literals:7'437 vars:506 one_side_vars:66 simple_definition:1 singleton_clauses:0
[SAT presolve] [0.000532564s] clauses:2'503 literals:7'102 vars:394 one_side_vars:66 simple_definition:2 singleton_clauses:0
  1.52e-04s  0.00e+00d  [DetectDuplicateConstraintsWithDifferentEnforcements] #without_enforcements=2 
  6.15e-03s  3.54e-03d  [Probe] #probed=1'301 #fixed_bools=15 #equiv=7 #new_binary_clauses=852 
  7.19e-04s  6.78e-04d  [MaxClique] Merged 691 constraints with 1'534 literals into 600 constraints with 1'385 literals
  8.77e-04s  0.00e+00d  [DetectDominanceRelations] 
  3.44e-03s  0.00e+00d  [PresolveToFixPoint] #num_loops=2 #num_dual_strengthening=2 
  1.18e-03s  0.00e+00d  [ProcessAtMostOneAndLinear] 
  1.12e-04s  0.00e+00d  [DetectDuplicateConstraints] #duplicates=10 
  9.12e-05s  0.00e+00d  [DetectDuplicateConstraintsWithDifferentEnforcements] 
  3.33e-03s  1.02e-04d  [DetectDominatedLinearConstraints] #relevant_constraints=813 #num_inclusions=498 #num_redundant=6 
  1.20e-04s  0.00e+00d  [DetectDifferentVariables] 
  7.86e-04s  8.69e-05d  [ProcessSetPPC] #relevant_constraints=3'220 #num_inclusions=271 
  2.88e-04s  3.57e-05d  [TransformClausesToExactlyOne] #num_amos=631 #num_clauses=1'801 #num_transformed=5 #num_checked=1'801 
  5.33e-05s  0.00e+00d  [DetectEncodedComplexDomains] 
  3.36e-05s  1.70e-07d  [FindAlmostIdenticalLinearConstraints] #num_tested_pairs=2 
  9.47e-04s  1.40e-03d  [FindBigAtMostOneAndLinearOverlap] 
  1.48e-03s  1.19e-03d  [FindBigVerticalLinearOverlap] #blocks=3 #saved_nz=252 
  3.53e-04s  6.12e-04d  [FindBigHorizontalLinearOverlap] #linears=454 
  3.22e-04s  2.81e-05d  [MergeClauses] #num_collisions=5 #num_merges=5 #num_saved_literals=11 
  8.21e-04s  0.00e+00d  [DetectDominanceRelations] 
  3.14e-03s  0.00e+00d  [PresolveToFixPoint] #num_loops=2 #num_dual_strengthening=1 
  8.08e-04s  0.00e+00d  [DetectDominanceRelations] 
  2.93e-03s  0.00e+00d  [PresolveToFixPoint] #num_loops=1 #num_dual_strengthening=1 
  2.36e-04s  0.00e+00d  [DetectDuplicateColumns] 
  9.44e-05s  0.00e+00d  [DetectDuplicateConstraints] 
[Symmetry] Graph for symmetry has 4'573 nodes and 13'996 arcs.
[Symmetry] Symmetry computation done. time: 0.00102091 dtime: 0.00147028
[SAT presolve] num removable Booleans: 100 / 494
[SAT presolve] num trivial clauses: 0
[SAT presolve] [0s] clauses:2'384 literals:6'795 vars:471 one_side_vars:161 simple_definition:16 singleton_clauses:0
[SAT presolve] [0.000237714s] clauses:2'383 literals:6'643 vars:471 one_side_vars:164 simple_definition:83 singleton_clauses:0
[SAT presolve] [0.000378787s] clauses:2'189 literals:6'201 vars:466 one_side_vars:202 simple_definition:63 singleton_clauses:0
  1.59e-04s  0.00e+00d  [DetectDuplicateConstraintsWithDifferentEnforcements] #without_enforcements=3 
  5.86e-03s  1.92e-03d  [Probe] #probed=1'290 #new_binary_clauses=446 
  4.45e-04s  3.12e-04d  [MaxClique] Merged 521 constraints with 1'158 literals into 508 constraints with 1'147 literals
  8.18e-04s  0.00e+00d  [DetectDominanceRelations] 
  3.00e-03s  0.00e+00d  [PresolveToFixPoint] #num_loops=1 #num_dual_strengthening=1 
  1.08e-03s  0.00e+00d  [ProcessAtMostOneAndLinear] 
  1.04e-04s  0.00e+00d  [DetectDuplicateConstraints] 
  9.58e-05s  0.00e+00d  [DetectDuplicateConstraintsWithDifferentEnforcements] 
  1.70e-03s  6.32e-05d  [DetectDominatedLinearConstraints] #relevant_constraints=807 #num_inclusions=350 
  1.28e-04s  0.00e+00d  [DetectDifferentVariables] 
  7.42e-04s  7.00e-05d  [ProcessSetPPC] #relevant_constraints=3'090 #num_inclusions=75 
  2.85e-04s  3.27e-05d  [TransformClausesToExactlyOne] #num_amos=503 #num_clauses=1'716 #num_checked=1'716 
  1.39e-04s  0.00e+00d  [DetectEncodedComplexDomains] 
  4.03e-05s  9.00e-08d  [FindAlmostIdenticalLinearConstraints] #num_tested_pairs=1 
  7.90e-04s  1.02e-03d  [FindBigAtMostOneAndLinearOverlap] 
  1.18e-03s  8.87e-04d  [FindBigVerticalLinearOverlap] 
  3.71e-04s  6.10e-04d  [FindBigHorizontalLinearOverlap] #linears=453 
  3.35e-04s  2.62e-05d  [MergeClauses] #num_collisions=72 #num_merges=72 #num_saved_literals=176 
  8.34e-04s  0.00e+00d  [DetectDominanceRelations] 
  2.98e-03s  0.00e+00d  [PresolveToFixPoint] #num_loops=1 #num_dual_strengthening=1 
  8.23e-04s  0.00e+00d  [DetectDominanceRelations] 
  2.98e-03s  0.00e+00d  [PresolveToFixPoint] #num_loops=1 #num_dual_strengthening=1 
  1.74e-04s  0.00e+00d  [DetectDuplicateColumns] 
  1.11e-04s  0.00e+00d  [DetectDuplicateConstraints] 
[Symmetry] Graph for symmetry has 4'313 nodes and 13'023 arcs.
[Symmetry] Symmetry computation done. time: 0.000947918 dtime: 0.0013796
[SAT presolve] num removable Booleans: 95 / 489
[SAT presolve] num trivial clauses: 0
[SAT presolve] [0s] clauses:2'164 literals:6'143 vars:466 one_side_vars:202 simple_definition:63 singleton_clauses:0
[SAT presolve] [0.000194683s] clauses:2'164 literals:6'143 vars:466 one_side_vars:202 simple_definition:63 singleton_clauses:0
[SAT presolve] [0.000255516s] clauses:2'164 literals:6'143 vars:466 one_side_vars:202 simple_definition:63 singleton_clauses:0
  1.58e-04s  0.00e+00d  [DetectDuplicateConstraintsWithDifferentEnforcements] 
  5.46e-03s  1.91e-03d  [Probe] #probed=1'290 #new_binary_clauses=446 
  5.09e-04s  3.04e-04d  [MaxClique] 
  8.37e-04s  0.00e+00d  [DetectDominanceRelations] 
  3.01e-03s  0.00e+00d  [PresolveToFixPoint] #num_loops=1 #num_dual_strengthening=1 
  1.08e-03s  0.00e+00d  [ProcessAtMostOneAndLinear] 
  1.08e-04s  0.00e+00d  [DetectDuplicateConstraints] 
  1.02e-04s  0.00e+00d  [DetectDuplicateConstraintsWithDifferentEnforcements] 
  1.66e-03s  6.32e-05d  [DetectDominatedLinearConstraints] #relevant_constraints=807 #num_inclusions=350 
  1.28e-04s  0.00e+00d  [DetectDifferentVariables] 
  7.27e-04s  6.98e-05d  [ProcessSetPPC] #relevant_constraints=3'083 #num_inclusions=68 
  2.87e-04s  3.27e-05d  [TransformClausesToExactlyOne] #num_amos=501 #num_clauses=1'716 #num_checked=1'716 
  1.45e-04s  0.00e+00d  [DetectEncodedComplexDomains] 
  4.84e-05s  1.80e-07d  [FindAlmostIdenticalLinearConstraints] #num_tested_pairs=2 
  7.83e-04s  1.01e-03d  [FindBigAtMostOneAndLinearOverlap] 
  1.20e-03s  8.87e-04d  [FindBigVerticalLinearOverlap] 
  3.62e-04s  6.10e-04d  [FindBigHorizontalLinearOverlap] #linears=453 
  3.42e-04s  2.62e-05d  [MergeClauses] #num_collisions=72 #num_merges=72 #num_saved_literals=176 
  8.50e-04s  0.00e+00d  [DetectDominanceRelations] 
  3.04e-03s  0.00e+00d  [PresolveToFixPoint] #num_loops=1 #num_dual_strengthening=1 
  3.09e-05s  0.00e+00d  [MergeNoOverlap] 
  3.18e-05s  0.00e+00d  [MergeNoOverlap2D] 

Presolve summary:
  - 37 affine relations were detected.
  - rule 'TODO dual: only one blocking constraint?' was applied 985 times.
  - rule 'TODO linear inclusion: superset is equality' was applied 359 times.
  - rule 'affine: new relation' was applied 37 times.
  - rule 'at_most_one: removed literals' was applied 43 times.
  - rule 'at_most_one: size one' was applied 42 times.
  - rule 'at_most_one: transformed into max clique' was applied 2 times.
  - rule 'bool_and: cannot be enforced' was applied 1 time.
  - rule 'bool_or: always true' was applied 6 times.
  - rule 'bool_or: fixed literals' was applied 2 times.
  - rule 'bool_or: implications' was applied 79 times.
  - rule 'bool_or: only one literal' was applied 12 times.
  - rule 'bool_or: removed enforcement literal' was applied 565 times.
  - rule 'clauses: transformed into exactly one' was applied 5 times.
  - rule 'deductions: 857 stored' was applied 1 time.
  - rule 'dual: fix variable' was applied 1 time.
  - rule 'duplicate: merged rhs of linear constraint' was applied 14 times.
  - rule 'duplicate: removed constraint' was applied 15 times.
  - rule 'duplicate: removed enforced constraint' was applied 5 times.
  - rule 'enforcement: false literal' was applied 38 times.
  - rule 'enforcement: true literal' was applied 12 times.
  - rule 'exactly_one: removed literals' was applied 32 times.
  - rule 'exactly_one: satisfied' was applied 3 times.
  - rule 'exactly_one: singleton' was applied 2 times.
  - rule 'exactly_one: size two' was applied 30 times.
  - rule 'exactly_one: x and not(x)' was applied 4 times.
  - rule 'incompatible linear: add implication' was applied 132 times.
  - rule 'linear + amo: empty after processing' was applied 6 times.
  - rule 'linear + amo: extracted enforcement literal' was applied 60 times.
  - rule 'linear + amo: trivial linear constraint' was applied 2 times.
  - rule 'linear inclusion: redundant containing constraint' was applied 2 times.
  - rule 'linear inclusion: redundant included constraint' was applied 3 times.
  - rule 'linear inclusion: sparsify superset' was applied 1 time.
  - rule 'linear matrix: common vertical rectangle' was applied 3 times.
  - rule 'linear1: x in domain' was applied 26 times.
  - rule 'linear2: convert ax + by != cte to clauses' was applied 257 times.
  - rule 'linear2: convert implied ax + by == cte to clauses' was applied 116 times.
  - rule 'linear2: implied ax + by = cte has only one solution' was applied 8 times.
  - rule 'linear: always true' was applied 418 times.
  - rule 'linear: empty' was applied 1 time.
  - rule 'linear: extracted at most one (max)' was applied 1 time.
  - rule 'linear: fixed or dup variables' was applied 880 times.
  - rule 'linear: negative clause' was applied 1'305 times.
  - rule 'linear: negative reified and' was applied 78 times.
  - rule 'linear: never in domain' was applied 6 times.
  - rule 'linear: positive at most one' was applied 34 times.
  - rule 'linear: reduced variable domains' was applied 4 times.
  - rule 'linear: remapped using affine relations' was applied 22 times.
  - rule 'new_bool: integer encoding' was applied 3 times.
  - rule 'presolve: 82 unused variables removed.' was applied 1 time.
  - rule 'presolve: iteration' was applied 3 times.
  - rule 'probing: bool_or reduced to implication' was applied 43 times.
  - rule 'probing: simplified clauses' was applied 8 times.
  - rule 'setppc: bool_or in at_most_one' was applied 12 times.
  - rule 'setppc: removed dominated constraints' was applied 91 times.
  - rule 'variables: add encoding constraint' was applied 3 times.

Presolved satisfaction model '': (model_fingerprint: 0x6b0e92daf5037c11)
#Variables: 492 (420 primary variables)
  - 489 Booleans in [0,1]
  - 2 in [0,2]
  - 1 in [0,9]
#kAtMostOne: 53 (#literals: 222)
#kBoolAnd: 265 (#enforced: 265) (#literals: 713)
#kBoolAndClauses: 72 (#enforced: 72 #multi: 72) (#literals: 320)
#kBoolOr: 1'572 (#literals: 4'751)
#kExactlyOne: 59 (#literals: 225)
#kLinear1: 6 (#enforced: 6)
#kLinearN: 807 (#enforced: 122) (#terms: 5'461)
[Symmetry] Graph for symmetry has 4'075 nodes and 13'023 arcs.
[Symmetry] Symmetry computation done. time: 0.000828555 dtime: 0.00136532

Preloading model.
#Model   0.10s var:492/492 constraints:2834/2834

Starting search at 0.10s with 4 workers.
3 full problem subsolvers: [default_lp, max_lp, no_lp]
1 first solution subsolver: [fj]
2 interleaved subsolvers: [feasibility_pump, rins/rens]
2 helper subsolvers: [neighborhood_helper, synchronization_agent]

#Model   0.37s var:491/492 constraints:2834/2834
#Model   0.79s var:490/492 constraints:2834/2834
#Model   2.85s var:489/492 constraints:2834/2834
#Model   4.90s var:488/492 constraints:2833/2834
#Model 2173.55s var:487/492 constraints:2811/2834
#Model 2323.97s var:486/492 constraints:2791/2834
#Model 2444.78s var:485/492 constraints:2770/2834
#Model 2452.80s var:484/492 constraints:2751/2834
#Model 2453.83s var:483/492 constraints:2748/2834
#Model 2455.86s var:482/492 constraints:2729/2834
#Model 2460.83s var:481/492 constraints:2711/2834
#Model 2462.28s var:480/492 constraints:2690/2834
#Model 2463.80s var:477/492 constraints:2664/2834
#Model 2464.01s var:476/492 constraints:2644/2834
#Model 2464.80s var:462/492 constraints:2465/2834
#Model 2464.90s var:461/492 constraints:2464/2834
#Model 2464.93s var:460/492 constraints:2463/2834
#Model 2464.98s var:459/492 constraints:2462/2834
#Model 2465.50s var:458/492 constraints:2440/2834
#Done  2465.54s no_lp

Task timing                   n [     min,      max]      avg      dev     time         n [     min,      max]      avg      dev    dtime
        'default_lp':         1 [  41.09m,   41.09m]   41.09m   0.00ns   41.09m         2 [  2.16ms,   42.69m]   21.34m   21.34m   42.69m
  'feasibility_pump':     12226 [788.00us, 158.38ms]   1.54ms   1.45ms   18.86s     12225 [285.24us, 137.55ms] 298.98us   1.24ms    3.66s
                'fj':      8989 [109.35ms, 247.69ms] 136.01ms   8.44ms   20.38m      8989 [100.00ms, 100.14ms] 100.02ms  15.15us   14.98m
            'max_lp':         1 [  41.09m,   41.09m]   41.09m   0.00ns   41.09m         2 [ 83.57ms,   55.53m]   27.77m   27.77m   55.53m
             'no_lp':         1 [  41.09m,   41.09m]   41.09m   0.00ns   41.09m         2 [  1.75ms,    1.42h]   42.67m   42.67m    1.42h
         'rins/rens':     10794 [834.26us, 230.06ms] 113.27ms  42.15ms   20.38m     10781 [340.26us, 100.31ms]  68.59ms  36.77ms   12.32m

Search stats     Bools   Conflicts    Branches  Restarts  BacktrackToRoot   Backtrack     BoolPropag  IntegerPropag
  'default_lp':    489     228'546   8'359'915     1'247        1'342'965   1'914'205     86'818'604    101'457'526
      'max_lp':    489      87'842  11'219'101       502        1'776'890   2'264'461    112'230'502    142'891'884
       'no_lp':    489  21'571'328  28'912'534    75'947          559'453  21'987'085  1'909'052'696    441'870'874

SAT formula      Fixed  Equiv  Total  VarLeft  BinaryClauses  PermanentClauses  TemporaryClauses
  'default_lp':     15      6    489      468          3'422            24'919             1'773
      'max_lp':     10      5    489      474          2'810            31'740             2'284
       'no_lp':    267      9    489      213          3'506            36'187             1'322

SAT stats        ClassicMinim   LitRemoved  LitRemovedBinary   LitLearned  LitForgotten   Subsumed
  'default_lp':       201'607    2'519'351         1'174'254    6'275'317     3'951'758     89'073
      'max_lp':        74'363      874'984           443'562    1'954'035       929'683     36'849
       'no_lp':    19'374'840  301'801'602        98'023'313  503'812'376   392'647'257  6'066'164

Vivification       Clauses   Decisions  LitTrue  Subsumed  LitRemoved  DecisionReused  Conflicts
  'default_lp':  1'401'505   7'794'707        1    19'703     204'290         399'421      2'045
      'max_lp':  1'830'469  10'759'073        0    21'158     219'617         460'657      1'972
       'no_lp':    410'598   3'442'325       49    30'337     384'776         104'061      1'885

Clause deletion    at_true  l_and_not(l)  to_binary  sub_conflict  sub_extra  sub_decisions  sub_eager  sub_vivify  sub_probing  sub_inpro  blocked  eliminated   forgotten    promoted   conflicts
    'default_lp':   20'035            11         69        87'795        543          3'650      1'278      19'703        7'293     21'800        0           0     113'222     434'937     228'546
        'max_lp':   13'073             4         10        36'384        194          1'101        465      21'158        6'720     17'598        0           0      31'050     146'791      87'842
         'no_lp':  109'113            16        157     5'967'014     37'411        263'046     99'150      30'337       22'084    151'781        0           0  14'857'344  48'350'247  21'571'328

Lp stats         Component  Iterations  AddedCuts  OPTIMAL  DUAL_F.  DUAL_U.
  'default_lp':          1  31'204'035     82'957  309'024        1  179'165
      'max_lp':          1  14'910'919     63'311   30'280   58'172   31'309

Lp dimension        Final dimension of first component
  'default_lp':   398 rows, 342 columns, 12482 entries
      'max_lp':  1531 rows, 492 columns, 25171 entries

Lp debug         CutPropag  CutEqPropag   Adjust  Overflow        Bad  BadScaling
  'default_lp':          0           88  179'164         0  2'466'578           0
      'max_lp':          1          175   31'305         0  1'888'868           0

Lp pool          Constraints  Updates  Simplif  Merged  Shortened  Split  Strengthened       Cuts/Call
  'default_lp':       10'731   15'946    9'866       0      9'925    680             2  82'957/112'837
      'max_lp':       12'474   18'452      102       3        102  1'632         1'380   63'311/92'922

Lp Cut            default_lp  max_lp
          CG_FF:       1'002     106
           CG_K:         610      22
          CG_KL:         415      11
           CG_R:       1'102      82
          CG_RB:          33       1
         CG_RBP:           8       -
         Clique:           -     238
             IB:          26       7
       MIR_1_FF:         401     633
        MIR_1_K:          68      36
       MIR_1_KL:         233      25
        MIR_1_R:         366     339
       MIR_1_RB:           2       -
      MIR_1_RBP:           1       -
      MIR_1_RLT:           -   5'792
       MIR_2_FF:         622     435
        MIR_2_K:         156      96
       MIR_2_KL:         262      61
        MIR_2_R:         890     486
       MIR_2_RB:           4       -
      MIR_2_RBP:           3       -
       MIR_3_FF:         268     123
        MIR_3_K:          64      26
       MIR_3_KL:          86      10
        MIR_3_R:         449     166
       MIR_3_RB:           4       -
      MIR_3_RBP:           3       2
       MIR_4_FF:          98      29
        MIR_4_K:          21       8
       MIR_4_KL:          16       4
        MIR_4_R:         288     129
       MIR_4_RB:           3       -
      MIR_4_RBP:           4       -
       MIR_5_FF:          32       9
        MIR_5_K:           6       -
       MIR_5_KL:           6       1
        MIR_5_R:         200     111
       MIR_5_RB:           2       1
      MIR_5_RBP:           2       1
       MIR_6_FF:          21       6
        MIR_6_K:           5       2
       MIR_6_KL:           1       -
        MIR_6_R:         134     115
       MIR_6_RB:           6       2
      MIR_6_RBP:           2       -
   ZERO_HALF_FF:         287     482
    ZERO_HALF_K:          68      12
   ZERO_HALF_KL:          56       4
    ZERO_HALF_R:      74'400  53'573
   ZERO_HALF_RB:          35       1
  ZERO_HALF_RBP:         186     124

LNS stats       Improv/Calls  Closed  Difficulty  TimeLimit
  'rins/rens':   10784/10784     50%    8.04e-01       0.10

LS stats                                    Batches  Restarts/Perturbs    LinMoves   GenMoves  CompoundMoves  Bactracks  WeightUpdates  ScoreComputed
                             'fj_restart':      368                114  10'442'373          0              0          0      8'101'888     12'512'790
                    'fj_restart_compound':      349                128           0  3'525'827        283'398  1'620'969          7'829     61'467'182
                'fj_restart_compound_obj':      572                108           0  5'958'553        311'350  2'823'345         16'668    101'549'070
            'fj_restart_compound_perturb':      557                137           0  5'822'627        361'603  2'730'243         14'102     98'417'208
        'fj_restart_compound_perturb_obj':      464                135           0  4'782'745        349'907  2'216'144         10'485     81'930'349
                       'fj_restart_decay':      438                111  13'044'583          0              0          0        548'963      6'047'156
              'fj_restart_decay_compound':      619                125           0  7'211'271      1'222'590  2'994'060          7'711    110'431'082
          'fj_restart_decay_compound_obj':      678                138           0  7'891'952      1'330'184  3'280'573          8'435    120'940'703
      'fj_restart_decay_compound_perturb':      334                129           0  3'608'134        616'356  1'495'556          4'195     59'144'250
  'fj_restart_decay_compound_perturb_obj':      740                124           0  8'714'324      1'465'912  3'623'864          9'094    132'201'755
                   'fj_restart_decay_obj':      434                112  12'919'493          0              0          0        544'263      5'976'153
               'fj_restart_decay_perturb':      836                135  24'909'433          0              0          0      1'048'638     11'510'646
           'fj_restart_decay_perturb_obj':      508                130  15'124'786          0              0          0        636'836      7'000'982
                         'fj_restart_obj':    1'181                136  35'518'947          0              0          0     26'173'967     39'522'100
                     'fj_restart_perturb':      353                115  10'132'659          0              0          0      7'826'834     11'869'531
                 'fj_restart_perturb_obj':      558                103  16'392'322          0              0          0     12'923'008     18'359'712

Solution repositories    Added  Queried  Synchro
    'alternative_path':      0        0        0
      'best_solutions':      0        0        0
   'fj solution hints':  1'972        0    1'972
        'lp solutions':    839   10'794      838
                'pump':      0        0

Improving bounds shared    Num  Sym
            'default_lp':    1    0
                'max_lp':    1    0
                 'no_lp':   66    0

Clauses shared    #Exported  #Imported  #BinaryRead  #BinaryTotal
   'default_lp':      4'827     75'480        1'003         1'790
       'max_lp':      3'735     75'138          926         1'790
        'no_lp':     75'919      7'980        1'790         1'790

LRAT_status: NA
CpSolverResponse summary:
status: INFEASIBLE
objective: NA
best_bound: NA
integers: 355
booleans: 489
conflicts: 21571328
branches: 28912534
propagations: 1909052696
integer_propagations: 441870874
restarts: 75947
lp_iterations: 0
walltime: 2465.56
usertime: 2465.56
deterministic_time: 12656.2
gap_integral: 0

{
  "board_size": 22,
  "parity_proved": 0,
  "target": 34,
  "child_id": 2301,
  "child_count": 2640,
  "partition": "unknown_pair_x_diag_plus_twos_x_diag_minus_twos",
  "build_seconds": 0.0785222053527832,
  "workers": 4,
  "requested_seed": 2026074401,
  "effective_seed": 2026074401,
  "main_diagonal_pair": [
    5,
    16
  ],
  "pair_index": 95,
  "diag_plus_twos": 16,
  "diag_minus_twos": 15,
  "pair_excess": 0,
  "residual_certificate_slack": 112,
  "analytic_minimum_line_defect": 46,
  "analytic_defect_details": {
    "row_costs": {
      "12": 6,
      "13": 3,
      "14": 0,
      "15": 0,
      "16": 0,
      "17": 0
    },
    "column_costs": {
      "12": 6,
      "13": 3,
      "14": 0,
      "15": 0,
      "16": 0,
      "17": 0
    },
    "plus_cost": 24,
    "minus_cost": 22,
    "row_column_minimum": 0
  },
  "maximal_line_constraints": 2455,
  "analytic_infeasible": false,
  "allowed_points": 242,
  "status": "INFEASIBLE",
  "proof_method": "cp_sat_all_lines_with_certificate_profile_cuts",
  "elapsed_seconds": 2465.5615825653076,
  "branches": 28912534,
  "conflicts": 21571328
}
